p cnf 7230 15
4226 4227 0
3704 -4227 0
-3704 -4226 0
4224 4225 0
3702 -4225 0
-3702 -4224 0
4222 4223 0
3700 -4223 0
-3700 -4222 0
4220 4221 0
3696 -4221 0
-3696 -4220 0
-3694 4219 0
4218 -4219 0
3694 -4218 0
